
Gurobi 10.0.2 (win64) logging started Thu Jul  6 13:08:24 2023

Set parameter LogFile to value "Outputs/Logfiles/model_moo(Jul 06,1308).log"
Gurobi Optimizer version 10.0.2 build v10.0.2rc0 (win64)

CPU model: Intel(R) Core(TM) i5-8265U CPU @ 1.60GHz, instruction set [SSE2|AVX|AVX2]
Thread count: 4 physical cores, 8 logical processors, using up to 8 threads

Optimize a model with 12102 rows, 8060 columns and 20060 nonzeros
Model fingerprint: 0x62eb7306
Variable types: 6000 continuous, 2060 integer (2060 binary)
Coefficient statistics:
  Matrix range     [1e+00, 2e+05]
  Objective range  [3e-03, 1e+05]
  Bounds range     [1e+00, 1e+00]
  RHS range        [1e+00, 2e+07]
Warning: PoolSearchMode != 0 is not supported for multi-objective optimization.
         Reset PoolSearchMode to zero.

---------------------------------------------------------------------------
Multi-objectives: starting optimization with 2 objectives ... 
---------------------------------------------------------------------------

Multi-objectives: applying initial presolve ...
---------------------------------------------------------------------------

Presolve removed 10001 rows and 4000 columns
Presolve time: 1.11s
Presolved: 2101 rows and 4060 columns
---------------------------------------------------------------------------

Multi-objectives: optimize objective 1 (objective_re_1) ...
---------------------------------------------------------------------------

Found heuristic solution: objective -94.4822385
Presolve removed 2101 rows and 4060 columns
Presolve time: 0.01s
Presolve: All rows and columns removed

Explored 0 nodes (0 simplex iterations) in 1.23 seconds (0.01 work units)
Thread count was 1 (of 8 available processors)

Solution count 1: -94.4822 
No other solutions better than -94.4822

Optimal solution found (tolerance 1.00e-04)
Best objective -9.448223845782e+01, best bound -9.448223845782e+01, gap 0.0000%
---------------------------------------------------------------------------

Multi-objectives: optimize objective 2 (objective_cost_2) ...
---------------------------------------------------------------------------


Loaded user MIP start with objective 0


Explored 0 nodes (0 simplex iterations) in 1.26 seconds (0.01 work units)
Thread count was 1 (of 8 available processors)

Solution count 1: 0 

Optimal solution found (tolerance 1.00e-04)
Best objective 0.000000000000e+00, best bound 0.000000000000e+00, gap 0.0000%

---------------------------------------------------------------------------
Multi-objectives: solved in 1.28 seconds (0.01 work units), solution count 1


    Variable            X 
-------------------------
cover[o74,s20]            1 
cover[o98,s20]            1 
cover[o53,s20]            1 
cover[o178,s20]            1 
cover[o203,s20]            1 
cover[o127,s20]            1 
cover[o172,s20]            1 
cover[o51,s20]            1 
cover[o7,s20]            1 
cover[o30,s20]            1 
cover[o221,s20]            1 
cover[o64,s20]            1 
cover[o25,s20]            1 
cover[o94,s20]            1 
cover[o119,s20]            1 
cover[o148,s20]            1 
cover[o208,s20]            1 
cover[o86,s20]            1 
cover[o93,s20]            1 
cover[o108,s20]            1 
cover[o131,s20]            1 
cover[o6,s20]            1 
cover[o10,s20]            1 
cover[o41,s20]            1 
cover[o144,s20]            1 
cover[o169,s20]            1 
cover[o185,s20]            1 
cover[o87,s20]            1 
cover[o168,s20]            1 
cover[o24,s20]            1 
cover[o190,s20]            1 
cover[o97,s20]            1 
cover[o162,s20]            1 
cover[o106,s20]            1 
cover[o157,s20]            1 
cover[o175,s20]            1 
cover[o136,s20]            1 
cover[o145,s20]            1 
cover[o3,s20]            1 
cover[o28,s20]            1 
cover[o45,s20]            1 
cover[o27,s20]            1 
cover[o219,s20]            1 
cover[o9,s20]            1 
cover[o212,s20]            1 
cover[o139,s20]            1 
cover[o214,s20]            1 
cover[o113,s20]            1 
cover[o160,s20]            1 
cover[o191,s20]            1 
cover[o104,s20]            1 
cover[o184,s20]            1 
cover[o37,s20]            1 
cover[o165,s20]            1 
cover[o83,s20]            1 
cover[o114,s20]            1 
cover[o155,s20]            1 
cover[o91,s20]            1 
cover[o138,s20]            1 
cover[o183,s20]            1 
cover[o11,s20]            1 
cover[o181,s20]            1 
cover[o159,s20]            1 
cover[o48,s20]            1 
cover[o129,s20]            1 
cover[o158,s20]            1 
cover[o117,s20]            1 
cover[o153,s20]            1 
cover[o101,s20]            1 
cover[o44,s20]            1 
cover[o109,s20]            1 
cover[o59,s20]            1 
cover[o121,s20]            1 
cover[o13,s20]            1 
cover[o128,s20]            1 
cover[o90,s20]            1 
cover[o79,s20]            1 
cover[o161,s20]            1 
cover[o163,s20]            1 
cover[o130,s20]            1 
cover[o107,s20]            1 
cover[o42,s20]            1 
cover[o31,s20]            1 
cover[o19,s20]            1 
cover[o22,s20]            1 
cover[o187,s20]            1 
cover[o84,s20]            1 
cover[o132,s20]            1 
cover[o198,s20]            1 
cover[o49,s20]            1 
cover[o116,s20]            1 
cover[o124,s20]            1 
cover[o134,s20]            1 
cover[o82,s20]            1 
cover[o220,s20]            1 
cover[o207,s20]            1 
cover[o43,s20]            1 
cover[o192,s20]            1 
cover[o174,s20]            1 
cover[o78,s20]            1 
